40
1 0 66
2 0 69
2 1 9
3 0 38
3 1 30
3 2 23
4 0 67
4 1 56
4 2 32
4 3 66
5 0 73
5 1 48
5 2 32
5 3 78
5 4 37
6 0 67
6 1 16
6 2 45
6 3 40
6 4 2
6 5 31
7 0 2
7 1 40
7 2 76
7 3 34
7 4 3
7 5 54
7 6 61
8 0 69
8 1 73
8 2 7
8 3 73
8 4 36
8 5 9
8 6 71
8 7 77
9 0 73
9 1 57
9 2 21
9 3 52
9 4 50
9 5 59
9 6 55
9 7 65
9 8 55
10 0 53
10 1 73
10 2 8
10 3 77
10 4 41
10 5 52
10 6 32
10 7 5
10 8 25
10 9 46
11 0 47
11 1 36
11 2 78
11 3 52
11 4 2
11 5 8
11 6 53
11 7 43
11 8 61
11 9 26
11 10 26
12 0 47
12 1 42
12 2 64
12 3 80
12 4 75
12 5 68
12 6 70
12 7 75
12 8 31
12 9 80
12 10 48
12 11 62
13 0 21
13 1 41
13 2 22
13 3 18
13 4 44
13 5 38
13 6 13
13 7 3
13 8 54
13 9 78
13 10 75
13 11 22
13 12 79
14 0 10
14 1 71
14 2 79
14 3 61
14 4 69
14 5 70
14 6 74
14 7 22
14 8 25
14 9 61
14 10 4
14 11 15
14 12 19
14 13 47
15 0 45
15 1 26
15 2 17
15 3 73
15 4 11
15 5 60
15 6 24
15 7 77
15 8 26
15 9 37
15 10 27
15 11 41
15 12 31
15 13 23
15 14 27
16 0 58
16 1 8
16 2 62
16 3 37
16 4 26
16 5 4
16 6 4
16 7 34
16 8 66
16 9 69
16 10 8
16 11 52
16 12 53
16 13 74
16 14 71
16 15 17
17 0 39
17 1 70
17 2 10
17 3 46
17 4 1
17 5 69
17 6 71
17 7 42
17 8 9
17 9 13
17 10 10
17 11 74
17 12 1
17 13 73
17 14 71
17 15 11
17 16 69
18 0 70
18 1 69
18 2 16
18 3 6
18 4 43
18 5 31
18 6 18
18 7 6
18 8 77
18 9 14
18 10 37
18 11 34
18 12 23
18 13 28
18 14 8
18 15 35
18 16 49
18 17 47
19 0 49
19 1 66
19 2 60
19 3 30
19 4 42
19 5 76
19 6 15
19 7 58
19 8 40
19 9 46
19 10 79
19 11 69
19 12 31
19 13 42
19 14 65
19 15 59
19 16 50
19 17 23
19 18 78
20 0 32
20 1 78
20 2 51
20 3 31
20 4 36
20 5 56
20 6 75
20 7 63
20 8 20
20 9 39
20 10 32
20 11 38
20 12 48
20 13 59
20 14 57
20 15 59
20 16 1
20 17 19
20 18 57
20 19 30
21 0 62
21 1 2
21 2 4
21 3 13
21 4 33
21 5 10
21 6 74
21 7 14
21 8 36
21 9 48
21 10 41
21 11 20
21 12 22
21 13 59
21 14 42
21 15 5
21 16 57
21 17 56
21 18 77
21 19 40
21 20 43
22 0 56
22 1 25
22 2 39
22 3 6
22 4 50
22 5 30
22 6 17
22 7 46
22 8 56
22 9 52
22 10 51
22 11 79
22 12 45
22 13 5
22 14 48
22 15 37
22 16 65
22 17 15
22 18 65
22 19 38
22 20 75
22 21 47
23 0 73
23 1 50
23 2 29
23 3 50
23 4 79
23 5 30
23 6 48
23 7 80
23 8 23
23 9 27
23 10 14
23 11 77
23 12 30
23 13 66
23 14 47
23 15 60
23 16 41
23 17 59
23 18 34
23 19 67
23 20 19
23 21 21
23 22 58
24 0 79
24 1 38
24 2 45
24 3 57
24 4 24
24 5 39
24 6 55
24 7 68
24 8 45
24 9 52
24 10 32
24 11 68
24 12 56
24 13 58
24 14 39
24 15 65
24 16 21
24 17 19
24 18 69
24 19 70
24 20 79
24 21 3
24 22 38
24 23 2
25 0 77
25 1 21
25 2 80
25 3 62
25 4 10
25 5 11
25 6 39
25 7 1
25 8 68
25 9 30
25 10 63
25 11 26
25 12 78
25 13 25
25 14 17
25 15 23
25 16 45
25 17 53
25 18 69
25 19 62
25 20 15
25 21 65
25 22 46
25 23 24
25 24 44
26 0 4
26 1 22
26 2 55
26 3 55
26 4 74
26 5 32
26 6 67
26 7 15
26 8 67
26 9 44
26 10 31
26 11 4
26 12 39
26 13 45
26 14 22
26 15 15
26 16 59
26 17 52
26 18 61
26 19 46
26 20 12
26 21 29
26 22 31
26 23 62
26 24 6
26 25 31
27 0 58
27 1 14
27 2 8
27 3 46
27 4 11
27 5 10
27 6 37
27 7 54
27 8 66
27 9 77
27 10 33
27 11 47
27 12 62
27 13 43
27 14 58
27 15 17
27 16 48
27 17 58
27 18 78
27 19 15
27 20 7
27 21 79
27 22 17
27 23 2
27 24 17
27 25 4
27 26 2
28 0 43
28 1 73
28 2 23
28 3 27
28 4 36
28 5 51
28 6 23
28 7 16
28 8 58
28 9 62
28 10 53
28 11 51
28 12 74
28 13 19
28 14 20
28 15 20
28 16 44
28 17 73
28 18 4
28 19 75
28 20 27
28 21 68
28 22 60
28 23 20
28 24 69
28 25 14
28 26 47
28 27 5
29 0 3
29 1 21
29 2 61
29 3 42
29 4 9
29 5 46
29 6 79
29 7 52
29 8 39
29 9 22
29 10 45
29 11 73
29 12 39
29 13 45
29 14 13
29 15 47
29 16 49
29 17 4
29 18 31
29 19 77
29 20 21
29 21 79
29 22 40
29 23 37
29 24 54
29 25 4
29 26 9
29 27 28
29 28 59
30 0 66
30 1 47
30 2 51
30 3 75
30 4 30
30 5 41
30 6 14
30 7 29
30 8 40
30 9 45
30 10 29
30 11 67
30 12 47
30 13 34
30 14 47
30 15 35
30 16 4
30 17 64
30 18 45
30 19 75
30 20 72
30 21 42
30 22 19
30 23 3
30 24 69
30 25 30
30 26 49
30 27 28
30 28 4
30 29 8
31 0 5
31 1 44
31 2 21
31 3 60
31 4 56
31 5 6
31 6 21
31 7 25
31 8 74
31 9 30
31 10 51
31 11 21
31 12 29
31 13 49
31 14 10
31 15 42
31 16 45
31 17 14
31 18 39
31 19 71
31 20 38
31 21 47
31 22 35
31 23 6
31 24 26
31 25 35
31 26 73
31 27 60
31 28 36
31 29 58
31 30 78
32 0 18
32 1 28
32 2 42
32 3 6
32 4 73
32 5 72
32 6 61
32 7 25
32 8 32
32 9 39
32 10 75
32 11 12
32 12 76
32 13 39
32 14 50
32 15 37
32 16 53
32 17 44
32 18 22
32 19 14
32 20 61
32 21 23
32 22 56
32 23 49
32 24 45
32 25 40
32 26 17
32 27 33
32 28 15
32 29 17
32 30 24
32 31 54
33 0 7
33 1 63
33 2 19
33 3 49
33 4 69
33 5 11
33 6 13
33 7 77
33 8 7
33 9 59
33 10 36
33 11 63
33 12 71
33 13 78
33 14 25
33 15 48
33 16 60
33 17 6
33 18 8
33 19 70
33 20 53
33 21 33
33 22 60
33 23 17
33 24 45
33 25 31
33 26 12
33 27 79
33 28 53
33 29 55
33 30 50
33 31 12
33 32 27
34 0 74
34 1 48
34 2 34
34 3 25
34 4 77
34 5 21
34 6 10
34 7 55
34 8 14
34 9 68
34 10 28
34 11 59
34 12 64
34 13 47
34 14 29
34 15 50
34 16 65
34 17 64
34 18 19
34 19 57
34 20 15
34 21 34
34 22 12
34 23 47
34 24 34
34 25 3
34 26 76
34 27 39
34 28 53
34 29 18
34 30 73
34 31 40
34 32 57
34 33 57
35 0 49
35 1 59
35 2 2
35 3 57
35 4 48
35 5 32
35 6 24
35 7 37
35 8 5
35 9 32
35 10 9
35 11 63
35 12 64
35 13 3
35 14 6
35 15 11
35 16 16
35 17 58
35 18 13
35 19 45
35 20 76
35 21 2
35 22 22
35 23 41
35 24 64
35 25 11
35 26 22
35 27 40
35 28 31
35 29 79
35 30 72
35 31 61
35 32 23
35 33 23
35 34 35
36 0 60
36 1 39
36 2 19
36 3 79
36 4 79
36 5 1
36 6 76
36 7 53
36 8 48
36 9 48
36 10 38
36 11 14
36 12 38
36 13 30
36 14 16
36 15 49
36 16 3
36 17 10
36 18 79
36 19 14
36 20 3
36 21 42
36 22 22
36 23 37
36 24 49
36 25 31
36 26 73
36 27 38
36 28 79
36 29 75
36 30 60
36 31 18
36 32 10
36 33 45
36 34 76
36 35 77
37 0 28
37 1 39
37 2 46
37 3 14
37 4 71
37 5 39
37 6 14
37 7 68
37 8 51
37 9 39
37 10 14
37 11 71
37 12 58
37 13 46
37 14 25
37 15 31
37 16 57
37 17 8
37 18 43
37 19 28
37 20 32
37 21 34
37 22 4
37 23 80
37 24 41
37 25 68
37 26 33
37 27 53
37 28 1
37 29 56
37 30 70
37 31 12
37 32 50
37 33 37
37 34 31
37 35 62
37 36 56
38 0 55
38 1 74
38 2 51
38 3 63
38 4 59
38 5 11
38 6 67
38 7 24
38 8 2
38 9 28
38 10 50
38 11 25
38 12 67
38 13 42
38 14 54
38 15 24
38 16 17
38 17 57
38 18 8
38 19 24
38 20 42
38 21 76
38 22 62
38 23 70
38 24 24
38 25 72
38 26 9
38 27 74
38 28 77
38 29 34
38 30 32
38 31 8
38 32 17
38 33 3
38 34 24
38 35 32
38 36 23
38 37 76
39 0 18
39 1 18
39 2 29
39 3 77
39 4 31
39 5 3
39 6 64
39 7 56
39 8 12
39 9 20
39 10 80
39 11 54
39 12 65
39 13 3
39 14 6
39 15 32
39 16 53
39 17 32
39 18 53
39 19 26
39 20 34
39 21 26
39 22 36
39 23 42
39 24 13
39 25 8
39 26 30
39 27 19
39 28 22
39 29 9
39 30 43
39 31 61
39 32 7
39 33 53
39 34 12
39 35 33
39 36 34
39 37 44
39 38 20
